p cnf 15 40
-12 4 -1 0
11 12 -10 0
-13 14 15 0
1 -10 -1 0
11 -11 7 0
9 3 15 0
10 -14 -9 0
-6 3 -1 0
8 10 12 0
2 -5 4 0
-8 4 6 0
12 4 14 0
3 12 4 0
2 3 6 0
-6 14 -9 0
-8 -4 -11 0
-8 -4 14 0
8 6 14 0
8 -6 -4 0
-9 -11 15 0
3 4 7 0
2 4 6 0
-8 -5 -1 0
-13 12 15 0
-7 2 4 0
-15 -7 15 0
9 -11 15 0
10 2 -13 0
-11 12 -3 0
-7 -2 7 0
9 -12 14 0
1 -6 -15 0
-12 4 -9 0
8 -14 -4 0
-6 -2 14 0
4 13 6 0
1 -3 -1 0
2 12 -3 0
1 -6 12 0
11 14 -9 0
